Problem:    
Rows:       260
Columns:    89 (72 integer, 72 binary)
Non-zeros:  974
Status:     INTEGER OPTIMAL
Objective:  value = 109.09876 (MINimum)

   No.   Row name        Activity     Lower bound   Upper bound
------ ------------    ------------- ------------- -------------
     1 r.5                   109.099             0               
     2 r.6                   65.6925      -975.252               
     3 r.7                    1109.1             0               
     4 r.8                  -941.427      -951.645               
     5 r.9                    1109.1             0               
     6 r.10                 -944.346      -975.399               
     7 r.11                  109.099             0               
     8 r.12                  65.4744      -951.664               
     9 r.13                   1109.1             0               
    10 r.14                 -972.671      -994.471               
    11 r.15                  109.099             0               
    12 r.16                  65.3645      -993.275               
    13 r.17                   1109.1             0               
    14 r.18                 -934.526       -990.18               
    15 r.19                  109.099             0               
    16 r.20                  65.4744      -989.593               
    17 r.21                   1109.1             0               
    18 r.22                 -981.924      -988.943               
    19 r.23                  109.099             0               
    20 r.24                  65.3645      -976.484               
    21 r.25                   1109.1             0               
    22 r.26                 -996.705      -996.705               
    23 r.27                  109.099             0               
    24 r.28                 -994.553      -994.553               
    25 r.29                   1109.1             0               
    26 r.30                 -890.901      -956.376               
    27 r.31                  109.099             0               
    28 r.32                  109.099      -951.086               
    29 r.33                  109.099             0               
    30 r.34                  109.099      -959.283               
    31 r.35                   1109.1             0               
    32 r.36                 -890.901       -952.87               
    33 r.37                        1             1             = 
    34 r.38                        1             1             = 
    35 r.39                        1             1             = 
    36 r.40                        1             1             = 
    37 r.41                        1             1             = 
    38 r.42                        1             1             = 
    39 r.43                        1             1             = 
    40 r.44                        1             1             = 
    41 r.45                     1001             2               
    42 r.46                    -1001         -1001               
    43 r.47                  1993.69      -975.399               
    44 r.48                     1001             2               
    45 r.49                    -1001         -1001               
    46 r.50                  2003.51      -951.664               
    47 r.51                     1001             2               
    48 r.52                    -1001         -1001               
    49 r.53                  1965.36      -994.471               
    50 r.54                     1001             2               
    51 r.55                    -1001         -1001               
    52 r.56                   2003.4      -993.275               
    53 r.57                     1001             2               
    54 r.58                    -1001         -1001               
    55 r.59                  2003.51       -990.18               
    56 r.60                     1001             2               
    57 r.61                    -1001         -1001               
    58 r.62                  2003.51      -989.593               
    59 r.63                     1001             2               
    60 r.64                    -1001         -1001               
    61 r.65                  1956.11      -988.943               
    62 r.66                     1001             2               
    63 r.67                    -1001         -1001               
    64 r.68                   2003.4      -976.484               
    65 r.69                  58.6737      -975.252               
    66 r.70                 -948.446      -951.645               
    67 r.71                  1063.64      -975.252               
    68 r.72                  56.5217      -951.645               
    69 r.73                  -952.87      -956.376               
    70 r.74                  47.1302      -951.086               
    71 r.75                  -952.87      -956.376               
    72 r.76                  47.1302      -951.086               
    73 r.77                  47.1302      -959.283               
    74 r.78                  -952.87       -952.87               
    75 r.79                  47.1302      -959.283               
    76 r.80                  -952.87       -952.87               
    77 r.81                     1001             2               
    78 r.82                    -1001         -1001               
    79 r.83                  2010.04       24.7481               
    80 r.84                     1001             2               
    81 r.85                    -1001         -1001               
    82 r.86                   1993.1       48.3555               
    83 r.87                        2             2               
    84 r.88                       -2         -1001               
    85 r.89                 -28.3255      -994.471               
    86 r.90                     1000             2               
    87 r.91                    -1000         -1001               
    88 r.92                  1999.89      -993.275               
    89 r.93                        2             2               
    90 r.94                       -2         -1001               
    91 r.95                  -990.18       -990.18               
    92 r.96                     1000             2               
    93 r.97                    -1000         -1001               
    94 r.98                     2000      -989.593               
    95 r.99                        2             2               
    96 r.100                      -2         -1001               
    97 r.101                -37.5784      -988.943               
    98 r.102                    1000             2               
    99 r.103                   -1000         -1001               
   100 r.104                 1999.89      -976.484               
   101 r.105                -951.365      -975.399               
   102 r.106                 58.4555      -951.664               
   103 r.107                 53.6034      -975.399               
   104 r.108                 1063.42      -951.664               
   105 r.109                -946.556      -956.376               
   106 r.110                 53.4444      -951.086               
   107 r.111                -956.376      -956.376               
   108 r.112                 43.6244      -951.086               
   109 r.113                    1001             2               
   110 r.114                   -1001         -1001               
   111 r.115                 2053.44      -959.283               
   112 r.116                    1001             2               
   113 r.117                   -1001         -1001               
   114 r.118                 2043.62       -952.87               
   115 r.119                    1001             2               
   116 r.120                   -1001         -1001               
   117 r.121                 2034.64       24.7481               
   118 r.122                    1001             2               
   119 r.123                   -1001         -1001               
   120 r.124                  1996.6       48.3555               
   121 r.125                       2             2               
   122 r.126                      -2         -1001               
   123 r.127                 24.6015       24.6015               
   124 r.128                    1000             2               
   125 r.129                   -1000         -1001               
   126 r.130                 2003.51       48.3363               
   127 r.131                       2             2               
   128 r.132                      -2         -1001               
   129 r.133                -965.578       -990.18               
   130 r.134                    1000             2               
   131 r.135                   -1000         -1001               
   132 r.136                 2003.51      -989.593               
   133 r.137                       2             2               
   134 r.138                      -2         -1001               
   135 r.139                -12.9769      -988.943               
   136 r.140                    1000             2               
   137 r.141                   -1000         -1001               
   138 r.142                  2003.4      -976.484               
   139 r.143                 -979.69      -994.471               
   140 r.144                 58.3456      -993.275               
   141 r.145                 25.2779      -994.471               
   142 r.146                 1063.31      -993.275               
   143 r.147                -921.954      -956.376               
   144 r.148                 78.0459      -951.086               
   145 r.149                 -952.87      -956.376               
   146 r.150                 47.1302      -951.086               
   147 r.151                 78.0459      -959.283               
   148 r.152                -921.954       -952.87               
   149 r.153                 47.1302      -959.283               
   150 r.154                 -952.87       -952.87               
   151 r.155                    1001             2               
   152 r.156                   -1001         -1001               
   153 r.157                 2000.22       24.7481               
   154 r.158                    1001             2               
   155 r.159                   -1001         -1001               
   156 r.160                  1993.1       48.3555               
   157 r.161                       2             2               
   158 r.162                      -2         -1001               
   159 r.163                  990.18       24.6015               
   160 r.164                    1000             2               
   161 r.165                   -1000         -1001               
   162 r.166                    2000       48.3363               
   163 r.167                       2             2               
   164 r.168                      -2         -1001               
   165 r.169                 961.854        5.5289               
   166 r.170                    1000             2               
   167 r.171                   -1000         -1001               
   168 r.172                 1999.89       6.72509               
   169 r.173                       2             2               
   170 r.174                      -2         -1001               
   171 r.175                -47.3984      -988.943               
   172 r.176                    1000             2               
   173 r.177                   -1000         -1001               
   174 r.178                 1999.89      -976.484               
   175 r.179                -941.545       -990.18               
   176 r.180                 58.4555      -989.593               
   177 r.181                 63.4234       -990.18               
   178 r.182                 1063.42      -989.593               
   179 r.183                -956.376      -956.376               
   180 r.184                 43.6244      -951.086               
   181 r.185                -956.376      -956.376               
   182 r.186                 43.6244      -951.086               
   183 r.187                    1001             2               
   184 r.188                   -1001         -1001               
   185 r.189                 2043.62      -959.283               
   186 r.190                    1001             2               
   187 r.191                   -1001         -1001               
   188 r.192                 2043.62       -952.87               
   189 r.193                    1001             2               
   190 r.194                   -1001         -1001               
   191 r.195                 2043.89       24.7481               
   192 r.196                    1001             2               
   193 r.197                   -1001         -1001               
   194 r.198                  1996.6       48.3555               
   195 r.199                       2             2               
   196 r.200                      -2         -1001               
   197 r.201                 33.8544       24.6015               
   198 r.202                    1000             2               
   199 r.203                   -1000         -1001               
   200 r.204                 2003.51       48.3363               
   201 r.205                       2             2               
   202 r.206                      -2         -1001               
   203 r.207                  5.5289        5.5289               
   204 r.208                    1000             2               
   205 r.209                   -1000         -1001               
   206 r.210                  2003.4       6.72509               
   207 r.211                       2             2               
   208 r.212                      -2         -1001               
   209 r.213                 43.6744       9.82003               
   210 r.214                    1000             2               
   211 r.215                   -1000         -1001               
   212 r.216                 2003.51       10.4068               
   213 r.217                -988.943      -988.943               
   214 r.218                 58.3456      -976.484               
   215 r.219                  16.025      -988.943               
   216 r.220                 1063.31      -976.484               
   217 r.221                       2             2               
   218 r.222                      -2         -1001               
   219 r.223                -912.701      -956.376               
   220 r.224                    1000             2               
   221 r.225                   -1000         -1001               
   222 r.226                 2047.13      -951.086               
   223 r.227                 87.2988      -959.283               
   224 r.228                -912.701       -952.87               
   225 r.229                 47.1302      -959.283               
   226 r.230                 -952.87       -952.87               
   227 r.231                 -897.92      -956.376               
   228 r.232                  102.08      -951.086               
   229 r.233                 107.048      -956.376               
   230 r.234                 1107.05      -951.086               
   231 r.235                       2             2               
   232 r.236                      -2         -1001               
   233 r.237                 908.977       11.0571               
   234 r.238                    1000             2               
   235 r.239                   -1000         -1001               
   236 r.240                 1956.27       23.5162               
   237 r.241                    1001             2               
   238 r.242                   -1001         -1001               
   239 r.243                    2000      -959.283               
   240 r.244                    1001             2               
   241 r.245                   -1001         -1001               
   242 r.246                    2000       -952.87               
   243 r.247                    1001             2               
   244 r.248                   -1001         -1001               
   245 r.249                 1946.56       24.6015               
   246 r.250                    1001             2               
   247 r.251                   -1001         -1001               
   248 r.252                 1956.38       48.3363               
   249 r.253                    1001             2               
   250 r.254                   -1001         -1001               
   251 r.255                 1956.38       9.82003               
   252 r.256                    1001             2               
   253 r.257                   -1001         -1001               
   254 r.258                 1956.38       10.4068               
   255 r.259                    1001             2               
   256 r.260                   -1001         -1001               
   257 r.261                    2000       43.6244               
   258 r.262                    1001             2               
   259 r.263                   -1001         -1001               
   260 r.264                    2000       48.9136               

   No. Column name       Activity     Lower bound   Upper bound
------ ------------    ------------- ------------- -------------
     1 tt                    109.099             0               
     2 s_1_1        *              0             0             1 
     3 t_1_1                 47.1302             0               
     4 s_1_8        *              0             0             1 
     5 s_1_7        *              1             0             1 
     6 s_2_1        *              1             0             1 
     7 t_2_1                 47.1302             0               
     8 s_2_8        *              1             0             1 
     9 s_2_7        *              0             0             1 
    10 s_1_2        *              1             0             1 
    11 t_1_2                 53.4444             0               
    12 s_2_2        *              0             0             1 
    13 t_2_2                 43.6244             0               
    14 s_1_3        *              1             0             1 
    15 t_1_3                 78.0459             0               
    16 s_2_3        *              0             0             1 
    17 t_2_3                 47.1302             0               
    18 s_1_4        *              1             0             1 
    19 t_1_4                 43.6244             0               
    20 s_2_4        *              0             0             1 
    21 t_2_4                 43.6244             0               
    22 s_1_5        *              1             0             1 
    23 t_1_5                 87.2988             0               
    24 s_2_5        *              0             0             1 
    25 t_2_5                 47.1302             0               
    26 s_1_6        *              1             0             1 
    27 t_1_6                  102.08             0               
    28 s_2_6        *              0             0             1 
    29 t_2_6                 1107.05             0               
    30 t_1_7                       0             0               
    31 t_2_7                       0             0               
    32 t_1_8                       0             0               
    33 t_2_8                       0             0               
    34 r_1_1_2      *              1             0             1 
    35 u_1_1_2      *              0             0             1 
    36 r_2_1_2      *              1             0             1 
    37 u_2_1_2      *              0             0             1 
    38 r_1_1_3      *              1             0             1 
    39 u_1_1_3      *              0             0             1 
    40 r_2_1_3      *              1             0             1 
    41 u_2_1_3      *              0             0             1 
    42 r_1_1_4      *              1             0             1 
    43 u_1_1_4      *              0             0             1 
    44 r_2_1_4      *              1             0             1 
    45 u_2_1_4      *              0             0             1 
    46 r_1_1_5      *              1             0             1 
    47 u_1_1_5      *              0             0             1 
    48 r_2_1_5      *              1             0             1 
    49 u_2_1_5      *              0             0             1 
    50 r_1_2_3      *              0             0             1 
    51 u_1_2_3      *              0             0             1 
    52 r_2_2_3      *              1             0             1 
    53 u_2_2_3      *              0             0             1 
    54 r_1_2_4      *              0             0             1 
    55 u_1_2_4      *              1             0             1 
    56 r_2_2_4      *              1             0             1 
    57 u_2_2_4      *              0             0             1 
    58 r_1_2_5      *              0             0             1 
    59 u_1_2_5      *              0             0             1 
    60 r_2_2_5      *              1             0             1 
    61 u_2_2_5      *              0             0             1 
    62 r_1_2_8      *              1             0             1 
    63 u_1_2_8      *              0             0             1 
    64 r_2_2_8      *              1             0             1 
    65 u_2_2_8      *              0             0             1 
    66 r_1_3_4      *              0             0             1 
    67 u_1_3_4      *              1             0             1 
    68 r_2_3_4      *              1             0             1 
    69 u_2_3_4      *              0             0             1 
    70 r_1_3_5      *              0             0             1 
    71 u_1_3_5      *              0             0             1 
    72 r_2_3_5      *              1             0             1 
    73 u_2_3_5      *              0             0             1 
    74 r_1_4_5      *              0             0             1 
    75 u_1_4_5      *              0             0             1 
    76 r_2_4_5      *              1             0             1 
    77 u_2_4_5      *              0             0             1 
    78 r_1_4_8      *              1             0             1 
    79 u_1_4_8      *              0             0             1 
    80 r_2_4_8      *              1             0             1 
    81 u_2_4_8      *              0             0             1 
    82 r_1_5_7      *              0             0             1 
    83 u_1_5_7      *              1             0             1 
    84 r_2_5_7      *              1             0             1 
    85 u_2_5_7      *              0             0             1 
    86 r_1_7_8      *              1             0             1 
    87 u_1_7_8      *              0             0             1 
    88 r_2_7_8      *              1             0             1 
    89 u_2_7_8      *              0             0             1 

Integer feasibility conditions:

KKT.PE: max.abs.err = 4.55e-13 on row 22
        max.rel.err = 2.02e-16 on row 22
        High quality

KKT.PB: max.abs.err = 1.14e-13 on row 24
        max.rel.err = 1.09e-15 on row 203
        High quality

End of output
